Strategies:  

WARNING: for repeatability, setting FPU to use double precision
============================[ Problem Statistics ]=============================
|                                                                             |
|  Number of variables:           999                                         |
|  Number of clauses:            9072                                         |
|  Parse time:                   0.00 s                                       |
|  Eliminated clauses:           0.00 Mb                                      |
|  Simplification time:          0.00 s                                       |
|                                                                             |
============================[ Search Statistics ]==============================
| Conflicts |          ORIGINAL         |          LEARNT          | Progress |
|           |    Vars  Clauses Literals |    Limit  Clauses Lit/Cl |          |
===============================================================================
===============================================================================
restarts              : 1
conflicts             : 31             (7750 /sec)
decisions             : 65             (0.00 % random) (16250 /sec)
propagations          : 2714           (678500 /sec)
conflict literals     : 301            (2.59 % deleted)
Memory used           : 22.00 MB
CPU time              : 0.004 s

SATISFIABLE


Strategies: -b -p  

WARNING: for repeatability, setting FPU to use double precision
============================[ Problem Statistics ]=============================
|                                                                             |
|  Number of variables:           999                                         |
|  Number of clauses:          338580                                         |
|  Parse time:                   0.28 s                                       |
|  Eliminated clauses:           0.00 Mb                                      |
|  Simplification time:         27.41 s                                       |
|                                                                             |
============================[ Search Statistics ]==============================
| Conflicts |          ORIGINAL         |          LEARNT          | Progress |
|           |    Vars  Clauses Literals |    Limit  Clauses Lit/Cl |          |
===============================================================================
===============================================================================
restarts              : 1
conflicts             : 18             (1 /sec)
decisions             : 20             (0.00 % random) (1 /sec)
propagations          : 2217           (80 /sec)
conflict literals     : 95             (32.14 % deleted)
Memory used           : 91.00 MB
CPU time              : 27.688 s

SATISFIABLE


Strategies: -b -x  

WARNING: for repeatability, setting FPU to use double precision
============================[ Problem Statistics ]=============================
|                                                                             |
|  Number of variables:           999                                         |
|  Number of clauses:          302292                                         |
|  Parse time:                   0.20 s                                       |
|  Eliminated clauses:           0.00 Mb                                      |
|  Simplification time:          0.32 s                                       |
|                                                                             |
============================[ Search Statistics ]==============================
| Conflicts |          ORIGINAL         |          LEARNT          | Progress |
|           |    Vars  Clauses Literals |    Limit  Clauses Lit/Cl |          |
===============================================================================
===============================================================================
restarts              : 1
conflicts             : 20             (38 /sec)
decisions             : 24             (0.00 % random) (46 /sec)
propagations          : 2635           (5029 /sec)
conflict literals     : 123            (31.67 % deleted)
Memory used           : 77.00 MB
CPU time              : 0.524 s

SATISFIABLE


Strategies: -b -x -p  

WARNING: for repeatability, setting FPU to use double precision
============================[ Problem Statistics ]=============================
|                                                                             |
|  Number of variables:           999                                         |
|  Number of clauses:          628884                                         |
|  Parse time:                   0.44 s                                       |
|  Eliminated clauses:           0.00 Mb                                      |
|  Simplification time:         22.49 s                                       |
|                                                                             |
============================[ Search Statistics ]==============================
| Conflicts |          ORIGINAL         |          LEARNT          | Progress |
|           |    Vars  Clauses Literals |    Limit  Clauses Lit/Cl |          |
===============================================================================
===============================================================================
restarts              : 1
conflicts             : 18             (1 /sec)
decisions             : 20             (0.00 % random) (1 /sec)
propagations          : 2217           (97 /sec)
conflict literals     : 95             (32.14 % deleted)
Memory used           : 142.00 MB
CPU time              : 22.932 s

SATISFIABLE


Strategies: -b -a  

WARNING: for repeatability, setting FPU to use double precision
============================[ Problem Statistics ]=============================
|                                                                             |
|  Number of variables:           999                                         |
|  Number of clauses:          956772                                         |
|  Parse time:                   0.80 s                                       |
|  Eliminated clauses:           0.00 Mb                                      |
|  Simplification time:          2.11 s                                       |
|                                                                             |
============================[ Search Statistics ]==============================
| Conflicts |          ORIGINAL         |          LEARNT          | Progress |
|           |    Vars  Clauses Literals |    Limit  Clauses Lit/Cl |          |
===============================================================================
===============================================================================
restarts              : 1
conflicts             : 20             (7 /sec)
decisions             : 24             (0.00 % random) (8 /sec)
propagations          : 2635           (906 /sec)
conflict literals     : 123            (31.67 % deleted)
Memory used           : 287.00 MB
CPU time              : 2.908 s

SATISFIABLE


Strategies: -b  

WARNING: for repeatability, setting FPU to use double precision
============================[ Problem Statistics ]=============================
|                                                                             |
|  Number of variables:           999                                         |
|  Number of clauses:           11988                                         |
|  Parse time:                   0.00 s                                       |
|  Eliminated clauses:           0.00 Mb                                      |
|  Simplification time:          0.01 s                                       |
|                                                                             |
============================[ Search Statistics ]==============================
| Conflicts |          ORIGINAL         |          LEARNT          | Progress |
|           |    Vars  Clauses Literals |    Limit  Clauses Lit/Cl |          |
===============================================================================
===============================================================================
restarts              : 1
conflicts             : 20             (1667 /sec)
decisions             : 24             (0.00 % random) (2000 /sec)
propagations          : 2635           (219583 /sec)
conflict literals     : 123            (31.67 % deleted)
Memory used           : 23.00 MB
CPU time              : 0.012 s

SATISFIABLE


